c 
c MolecularSimulation 0.9.3
c Simulation written: Jan 13 2012 -- 15:17:57
c Test: Distribution
c Input: ./data/testCNF/SWEEP_R1_K3_N20_M16_S002.cnf
c 
s SATISFIABLE
v 1 2 3 -4 10 11 13 14 15 17 -18 0
c algorithmTime:  44
c solutionMemory: 267305
c mixCount:       45
c extractCount:   0
c appendCount:    1434156
c splitCount:     45
c spliceCount:    704235
c purifyCount:    15
c 
